c description: There is a graph of 4 vertices with a 3-clique and a 6-coloring
c generator: CNFgen (0.9.0)
c copyright: (C) 2012-2020 Massimo Lauria <massimo.lauria@uniroma1.it>
c url: https://massimolauria.net/cnfgen
c
p cnf 42 169
-7 -8 0
-7 -9 0
-7 -10 0
-8 -9 0
-8 -10 0
-9 -10 0
7 8 9 10 0
-11 -12 0
-11 -13 0
-11 -14 0
-12 -13 0
-12 -14 0
-13 -14 0
11 12 13 14 0
-15 -16 0
-15 -17 0
-15 -18 0
-16 -17 0
-16 -18 0
-17 -18 0
15 16 17 18 0
-7 -11 0
-7 -15 0
-11 -15 0
-8 -12 0
-8 -16 0
-12 -16 0
-9 -13 0
-9 -17 0
-13 -17 0
-10 -14 0
-10 -18 0
-14 -18 0
1 -7 -12 0
1 -7 -16 0
1 -11 -8 0
1 -11 -16 0
1 -15 -8 0
1 -15 -12 0
2 -7 -13 0
2 -7 -17 0
2 -11 -9 0
2 -11 -17 0
2 -15 -9 0
2 -15 -13 0
3 -7 -14 0
3 -7 -18 0
3 -11 -10 0
3 -11 -18 0
3 -15 -10 0
3 -15 -14 0
4 -8 -13 0
4 -8 -17 0
4 -12 -9 0
4 -12 -17 0
4 -16 -9 0
4 -16 -13 0
5 -8 -14 0
5 -8 -18 0
5 -12 -10 0
5 -12 -18 0
5 -16 -10 0
5 -16 -14 0
6 -9 -14 0
6 -9 -18 0
6 -13 -10 0
6 -13 -18 0
6 -17 -10 0
6 -17 -14 0
-19 -20 0
-19 -21 0
-19 -22 0
-19 -23 0
-19 -24 0
-20 -21 0
-20 -22 0
-20 -23 0
-20 -24 0
-21 -22 0
-21 -23 0
-21 -24 0
-22 -23 0
-22 -24 0
-23 -24 0
19 20 21 22 23 24 0
-25 -26 0
-25 -27 0
-25 -28 0
-25 -29 0
-25 -30 0
-26 -27 0
-26 -28 0
-26 -29 0
-26 -30 0
-27 -28 0
-27 -29 0
-27 -30 0
-28 -29 0
-28 -30 0
-29 -30 0
25 26 27 28 29 30 0
-31 -32 0
-31 -33 0
-31 -34 0
-31 -35 0
-31 -36 0
-32 -33 0
-32 -34 0
-32 -35 0
-32 -36 0
-33 -34 0
-33 -35 0
-33 -36 0
-34 -35 0
-34 -36 0
-35 -36 0
31 32 33 34 35 36 0
-37 -38 0
-37 -39 0
-37 -40 0
-37 -41 0
-37 -42 0
-38 -39 0
-38 -40 0
-38 -41 0
-38 -42 0
-39 -40 0
-39 -41 0
-39 -42 0
-40 -41 0
-40 -42 0
-41 -42 0
37 38 39 40 41 42 0
-1 -19 -25 0
-1 -20 -26 0
-1 -21 -27 0
-1 -22 -28 0
-1 -23 -29 0
-1 -24 -30 0
-2 -19 -31 0
-2 -20 -32 0
-2 -21 -33 0
-2 -22 -34 0
-2 -23 -35 0
-2 -24 -36 0
-3 -19 -37 0
-3 -20 -38 0
-3 -21 -39 0
-3 -22 -40 0
-3 -23 -41 0
-3 -24 -42 0
-4 -25 -31 0
-4 -26 -32 0
-4 -27 -33 0
-4 -28 -34 0
-4 -29 -35 0
-4 -30 -36 0
-5 -25 -37 0
-5 -26 -38 0
-5 -27 -39 0
-5 -28 -40 0
-5 -29 -41 0
-5 -30 -42 0
-6 -31 -37 0
-6 -32 -38 0
-6 -33 -39 0
-6 -34 -40 0
-6 -35 -41 0
-6 -36 -42 0